 200 79 
 29 77 29 86 33 44 1 99 79 7 60 22 
 91 96 10 42 12 11 88 83 41 36 78 6 
 8 41 43 57 66 8 13 67 89 77 100 10 
 57 3 49 50 67 67 47 37 63 12 81 80 
 5 100 42 80 66 15 23 43 78 62 57 72 
 3 85 33 94 64 91 97 38 94 65 74 83 
 59 8 91 13 97 16 7 
 70 
 1 2 3 4 5 7 8 9 10 11 12 13 
 14 16 17 18 19 20 21 22 23 24 25 26 
 27 28 29 30 31 32 33 34 35 37 38 40 
 41 42 45 46 47 48 49 50 51 52 53 54 
 56 57 58 59 60 61 62 64 65 66 67 68 
 69 71 72 73 74 75 76 77 78 79 
 62 
 1 2 5 6 7 9 11 12 13 14 15 18 
 19 20 22 23 24 25 27 28 29 30 31 32 
 33 34 35 38 40 41 43 45 46 47 48 49 
 53 54 55 56 57 58 59 60 61 62 63 64 
 65 66 67 68 69 70 71 73 74 75 76 77 
 78 79 
 18 
 4 5 14 19 21 25 27 28 29 31 37 56 
 61 66 69 71 73 74 
 4 
 26 36 47 48 
 4 
 22 27 53 68 
 59 
 1 3 4 5 6 8 9 10 11 12 14 15 
 16 18 19 20 21 22 23 24 27 28 29 30 
 31 32 33 35 36 38 39 40 41 42 44 45 
 46 47 51 52 53 55 57 59 60 61 62 63 
 64 68 69 70 71 72 73 74 75 77 78 
 32 
 3 5 9 11 12 15 23 24 28 29 32 33 
 39 46 49 50 51 53 54 55 57 58 60 62 
 63 66 67 69 70 76 77 78 
 17 
 4 10 12 14 17 26 37 38 44 48 49 57 
 62 67 70 76 79 
 21 
 6 8 16 19 20 25 30 39 41 48 51 53 
 57 60 61 63 64 67 74 75 77 
 42 
 1 3 4 5 10 11 14 15 16 18 21 22 
 24 25 26 29 31 32 36 37 38 41 44 46 
 51 52 53 54 55 59 60 62 63 65 67 70 
 71 73 75 77 78 79 
 70 
 1 2 3 4 5 6 7 8 9 10 11 13 
 14 15 16 17 18 19 20 21 22 23 24 25 
 26 27 28 29 30 31 32 33 35 36 37 38 
 39 40 41 42 43 46 48 49 50 51 52 54 
 55 56 57 59 62 63 64 65 66 67 68 69 
 70 71 72 73 74 75 76 77 78 79 
 18 
 2 12 14 16 27 29 30 34 36 42 47 49 
 55 56 67 68 76 78 
 65 
 1 2 3 4 6 8 9 10 12 14 15 17 
 18 19 20 21 22 24 25 26 27 28 29 30 
 31 32 33 34 36 37 38 39 41 43 44 45 
 46 47 48 49 50 51 52 54 56 58 59 60 
 61 63 64 65 67 68 69 70 71 72 73 74 
 75 76 77 78 79 
 55 
 1 2 4 5 6 7 8 9 12 13 15 16 
 17 19 21 22 23 24 25 26 27 29 30 31 
 32 33 34 36 37 38 40 42 44 45 48 49 
 53 55 56 57 59 60 64 65 67 68 70 71 
 72 73 74 75 76 77 79 
 60 
 2 3 4 5 7 9 10 11 12 14 16 18 
 19 21 23 24 25 26 28 29 30 32 34 35 
 36 37 38 39 40 41 44 47 48 49 50 52 
 53 54 55 57 58 59 60 61 62 63 64 65 
 66 67 68 70 71 72 73 74 75 76 77 79 
 20 
 4 5 18 22 31 33 35 42 44 47 49 57 
 63 64 66 67 69 70 71 78 
 56 
 1 2 4 5 8 9 10 11 12 15 18 19 
 21 23 24 25 26 28 30 31 32 33 34 36 
 40 41 42 43 45 47 48 49 50 52 54 55 
 56 57 58 59 60 61 62 63 64 66 67 68 
 69 71 72 73 74 76 77 78 
 4 
 24 50 60 75 
 24 
 1 2 3 5 8 10 11 13 15 23 24 25 
 26 28 29 31 34 36 43 58 63 69 72 76 
 65 
 2 3 4 6 7 8 10 11 12 14 15 16 
 17 19 21 22 23 24 25 26 27 28 29 30 
 32 34 35 36 37 38 39 40 42 43 44 45 
 46 47 48 49 50 51 52 53 54 55 56 57 
 60 61 62 64 65 66 68 69 70 71 72 73 
 74 75 76 77 78 
 47 
 1 3 4 5 8 11 12 13 16 17 19 20 
 21 24 27 29 30 33 34 37 38 39 40 42 
 44 45 46 48 50 51 52 53 55 57 60 65 
 66 67 68 70 71 72 73 74 75 76 78 
 44 
 2 3 4 6 8 9 11 12 14 15 16 17 
 18 20 24 26 27 28 29 30 32 33 34 35 
 36 39 41 42 43 44 45 50 55 57 58 60 
 61 64 68 69 71 73 78 79 
 18 
 2 4 10 13 17 21 25 26 34 43 45 46 
 52 54 57 59 66 76 
 24 
 2 9 12 15 20 24 27 28 32 33 44 45 
 48 52 53 54 58 60 64 70 71 73 77 79 
 55 
 2 3 4 5 6 7 8 9 10 11 13 14 
 17 20 21 23 24 25 26 27 28 30 31 34 
 36 37 38 39 40 42 43 46 48 50 52 53 
 57 58 59 60 61 62 63 64 65 66 68 70 
 71 74 75 76 77 78 79 
 7 
 20 24 36 41 59 63 76 
 19 
 1 3 4 5 8 19 21 23 31 32 36 37 
 41 49 50 58 66 67 78 
 15 
 9 13 17 18 19 33 34 43 49 50 56 59 
 62 69 75 
 26 
 3 5 7 8 14 17 19 20 23 28 32 35 
 36 37 39 43 48 50 51 54 60 61 67 69 
 72 79 
 69 
 1 3 4 5 6 7 8 9 10 11 12 13 
 15 16 17 18 19 20 21 22 23 24 25 26 
 27 28 29 30 31 32 33 34 35 36 38 39 
 40 41 42 43 44 45 46 48 49 50 51 52 
 53 54 55 56 57 59 60 63 64 66 67 68 
 69 70 71 72 73 74 76 78 79 
 6 
 17 29 33 53 68 76 
 57 
 1 2 3 6 7 8 10 12 14 15 16 17 
 18 20 22 23 24 25 26 30 31 32 33 35 
 37 38 39 40 41 42 43 45 47 49 50 51 
 54 55 56 58 59 60 61 63 65 66 68 70 
 71 72 73 74 75 76 77 78 79 
 51 
 3 5 6 7 8 9 10 13 14 16 18 19 
 20 21 22 23 24 26 31 32 33 34 35 36 
 39 40 42 45 47 48 49 53 55 56 57 58 
 59 60 62 63 65 66 67 68 69 70 72 74 
 76 77 79 
 17 
 3 6 8 9 10 12 19 20 24 38 41 45 
 60 68 76 77 79 
 54 
 1 2 4 5 6 7 8 9 12 13 14 17 
 18 19 20 21 23 26 27 28 31 33 34 37 
 38 39 40 41 42 43 44 45 46 48 50 53 
 54 55 56 57 59 63 64 65 68 69 70 71 
 72 73 74 75 77 78 
 74 
 1 3 4 5 6 7 8 9 10 11 12 13 
 14 16 17 18 19 20 21 22 23 24 25 26 
 27 28 29 30 31 32 34 35 36 37 39 40 
 41 42 43 44 45 46 47 48 49 50 51 52 
 53 54 55 56 57 58 59 60 61 62 63 64 
 66 67 68 69 70 71 72 73 74 75 76 77 
 78 79 
 14 
 8 14 28 30 32 39 44 46 54 55 56 64 
 73 79 
 60 
 1 2 3 4 5 6 7 8 11 12 13 14 
 15 17 18 19 20 21 22 23 24 25 26 27 
 28 29 32 33 34 35 36 37 38 40 41 43 
 45 46 48 49 50 51 54 56 57 58 59 62 
 64 65 66 68 69 70 71 72 75 76 78 79 
 2 
 12 59 
 19 
 1 4 7 21 23 28 29 31 34 40 42 44 
 45 52 60 64 71 77 78 
 21 
 3 6 10 17 19 32 35 43 45 47 49 52 
 56 59 64 67 70 72 73 74 76 
 63 
 1 2 3 5 6 7 8 10 11 12 13 15 
 16 17 18 19 20 21 22 23 25 26 28 29 
 30 31 32 33 35 36 37 38 39 41 42 43 
 45 47 48 49 50 52 53 54 57 59 62 63 
 64 65 66 68 69 70 71 72 73 74 75 76 
 77 78 79 
 50 
 1 2 5 6 9 11 12 13 14 15 17 18 
 19 23 24 25 26 27 29 30 33 35 36 37 
 39 40 41 42 45 46 47 50 51 52 54 57 
 58 62 65 66 67 68 70 72 73 74 76 77 
 78 79 
 76 
 1 2 3 4 5 6 7 8 9 10 11 12 
 13 14 15 16 17 18 19 20 21 22 23 24 
 25 26 27 28 29 30 31 32 33 34 35 36 
 37 38 39 40 41 42 43 44 45 46 47 48 
 49 50 51 52 55 56 57 58 59 60 61 62 
 63 64 65 66 67 68 69 70 72 73 74 75 
 76 77 78 79 
 27 
 1 4 7 10 12 16 22 24 29 33 40 43 
 49 54 57 58 60 62 63 64 65 66 68 69 
 73 78 79 
 60 
 2 3 4 5 6 8 9 13 14 16 17 18 
 19 20 21 22 24 25 26 27 28 30 31 32 
 33 34 35 36 37 38 39 40 41 43 45 46 
 49 50 51 52 54 56 57 58 60 61 62 63 
 64 65 67 69 70 71 73 74 75 77 78 79 
 24 
 8 20 22 25 27 35 37 38 40 42 44 47 
 48 50 57 59 62 64 65 66 67 69 71 72 
 62 
 2 3 5 6 7 9 11 14 15 16 17 18 
 19 20 21 22 23 25 26 27 28 30 31 32 
 33 34 35 36 37 38 39 40 41 42 43 44 
 45 47 48 49 51 52 53 54 55 57 58 59 
 61 62 63 64 65 66 67 69 72 73 74 75 
 76 77 
 43 
 1 2 3 6 13 14 17 18 20 22 23 24 
 25 28 31 35 36 37 38 39 40 41 42 44 
 48 49 50 53 54 55 57 58 59 60 62 66 
 67 69 71 73 74 78 79 
 56 
 3 4 6 7 8 9 10 12 13 14 15 16 
 17 18 19 20 21 23 24 25 26 27 28 29 
 30 31 33 34 35 36 37 38 42 43 44 46 
 48 49 53 54 55 57 58 60 61 62 63 67 
 68 69 70 71 72 75 76 78 
 38 
 1 2 4 6 7 9 11 12 13 14 15 23 
 25 26 27 29 30 37 38 40 41 42 44 45 
 48 49 50 55 57 63 64 66 68 70 74 75 
 76 77 
 6 
 8 13 16 23 28 55 
 60 
 1 2 4 6 7 8 9 11 12 13 14 15 
 18 19 20 21 22 23 26 28 30 31 32 33 
 34 36 37 38 40 41 42 43 44 45 48 49 
 50 51 52 53 55 57 58 59 60 61 62 63 
 64 65 66 67 68 69 70 72 73 75 77 79 
 35 
 1 2 3 6 9 11 12 13 15 16 17 20 
 22 24 25 27 29 30 33 36 37 41 42 44 
 46 57 60 61 63 65 68 73 74 76 78 
 28 
 3 5 7 8 14 15 17 19 32 33 37 38 
 39 43 46 49 50 55 56 60 62 64 65 67 
 68 73 78 79 
 77 
 1 2 3 4 5 6 7 8 9 10 11 12 
 13 14 15 16 17 18 19 20 21 22 23 24 
 25 26 27 28 29 30 31 32 33 34 35 36 
 37 38 39 40 41 42 43 44 45 46 47 48 
 49 50 51 52 53 55 56 57 58 59 60 61 
 62 63 64 65 66 67 68 69 70 71 72 74 
 75 76 77 78 79 
 47 
 3 4 6 10 12 13 14 15 16 17 20 22 
 27 28 31 32 34 35 36 37 38 40 41 44 
 45 47 48 50 51 52 54 55 57 58 61 63 
 64 65 66 67 68 69 72 73 74 75 76 
 24 
 2 4 11 12 14 21 24 32 34 37 38 43 
 46 48 49 52 53 54 55 67 72 74 77 78 
 78 
 1 2 3 4 5 6 7 8 9 10 11 12 
 13 14 15 16 17 18 19 20 21 22 23 24 
 25 26 27 28 29 30 31 32 33 34 35 36 
 37 38 39 41 42 43 44 45 46 47 48 49 
 50 51 52 53 54 55 56 57 58 59 60 61 
 62 63 64 65 66 67 68 69 70 71 72 73 
 74 75 76 77 78 79 
 76 
 1 2 3 4 6 7 8 9 10 11 12 13 
 14 15 16 17 18 19 20 21 22 23 24 25 
 26 28 29 30 31 32 33 34 35 36 37 38 
 39 40 41 42 43 44 45 46 48 49 50 51 
 52 53 54 55 56 57 58 59 60 61 62 63 
 64 65 66 67 68 69 70 71 72 73 74 75 
 76 77 78 79 
 40 
 2 5 6 11 12 13 15 16 17 19 27 28 
 29 30 33 34 35 36 38 43 45 46 47 49 
 52 53 54 56 58 59 63 64 66 67 68 69 
 74 75 76 79 
 5 
 3 21 30 42 63 
 74 
 1 2 3 4 5 6 7 8 10 11 12 13 
 17 18 20 21 22 23 24 25 26 27 28 29 
 30 31 32 33 34 35 36 37 38 39 40 41 
 42 43 44 45 46 47 48 49 50 51 52 53 
 54 55 56 57 58 59 60 61 62 63 64 65 
 66 67 68 69 70 71 72 73 74 75 76 77 
 78 79 
 16 
 2 7 10 21 23 24 28 38 43 44 45 48 
 55 62 67 69 
 61 
 1 2 3 4 6 9 10 11 12 13 14 15 
 16 17 19 20 21 22 23 24 25 27 29 30 
 31 32 34 35 36 37 38 40 41 43 44 45 
 47 48 49 50 52 54 56 57 58 59 62 64 
 65 66 67 68 69 70 71 72 74 76 77 78 
 79 
 67 
 1 2 3 4 5 6 7 8 9 10 11 12 
 13 14 15 17 18 19 20 21 22 23 24 25 
 26 27 28 29 31 32 33 34 35 36 37 38 
 41 42 43 44 46 48 49 51 52 53 54 57 
 58 59 60 61 62 63 65 66 67 68 69 70 
 71 73 74 75 77 78 79 
 18 
 2 6 15 19 22 23 25 29 32 34 36 37 
 50 60 65 68 69 78 
 49 
 4 8 9 11 14 15 16 17 18 19 21 22 
 25 26 28 29 30 31 33 34 36 37 38 41 
 43 45 46 49 50 51 52 53 54 55 57 58 
 59 60 62 63 64 65 66 68 69 71 76 77 
 79 
 18 
 4 5 7 8 13 14 19 22 24 27 32 36 
 50 58 72 73 75 79 
 48 
 1 4 5 8 12 13 17 19 21 22 23 24 
 25 26 27 28 29 30 32 33 34 35 36 37 
 38 39 45 46 49 50 51 52 53 56 57 59 
 62 63 66 67 68 71 72 74 76 77 78 79 
 14 
 1 24 25 28 32 37 39 45 53 55 71 72 
 75 79 
 68 
 1 2 3 4 5 7 8 9 10 11 12 13 
 14 15 16 17 18 19 20 21 22 24 25 26 
 27 29 30 31 33 34 35 36 37 38 39 40 
 41 42 43 44 46 47 48 49 50 51 53 54 
 55 56 57 59 60 61 62 63 64 65 68 69 
 70 72 73 75 76 77 78 79 
 62 
 1 2 4 5 6 8 9 10 11 12 13 14 
 16 17 18 19 20 24 26 27 28 29 30 31 
 32 33 34 36 37 38 39 40 41 42 43 44 
 45 47 48 49 50 51 52 53 54 56 57 59 
 60 62 63 64 65 67 68 69 72 73 74 77 
 78 79 
 15 
 21 28 30 34 40 45 48 49 51 52 58 59 
 64 66 68 
 24 
 3 8 13 14 15 16 19 20 21 22 23 24 
 29 31 34 35 36 37 38 45 47 49 51 74 
 75 
 1 2 3 4 6 7 8 9 10 11 12 13 
 14 15 16 17 18 19 20 21 22 23 24 25 
 26 27 28 29 30 31 32 33 34 35 36 37 
 38 39 40 41 42 43 44 45 46 48 49 50 
 52 53 54 55 56 57 58 59 60 61 62 63 
 64 65 66 67 68 69 70 71 72 74 75 76 
 77 78 79 
 67 
 1 2 4 5 6 7 9 10 11 12 13 14 
 18 19 20 21 22 23 24 25 26 28 29 32 
 33 34 35 36 38 40 41 42 43 44 45 46 
 47 48 49 50 51 52 54 55 56 57 58 59 
 60 61 62 63 64 65 66 67 68 69 71 72 
 73 74 75 76 77 78 79 
 27 
 1 3 4 6 10 11 12 19 21 22 25 26 
 37 39 40 43 46 49 52 57 58 59 60 62 
 72 74 75 
 74 
 1 2 3 4 5 6 7 8 9 10 11 12 
 13 14 15 16 17 18 19 20 21 22 23 24 
 25 26 27 28 29 30 31 32 33 34 35 36 
 37 38 39 41 43 45 46 47 48 49 50 51 
 52 54 55 56 57 58 59 60 62 63 64 65 
 66 67 68 69 70 71 72 73 74 75 76 77 
 78 79 
 20 
 18 20 23 36 40 41 42 43 45 48 50 52 
 59 62 64 65 67 68 69 78 
 57 
 1 5 6 7 10 12 14 15 16 18 19 20 
 21 24 25 26 28 29 30 31 32 34 35 36 
 37 38 39 40 41 42 43 44 46 49 50 52 
 53 54 55 56 57 59 61 62 63 66 67 68 
 69 70 72 73 74 75 76 78 79 
 10 
 5 7 16 33 51 53 59 66 68 78 
 18 
 6 15 18 28 31 32 33 37 39 44 49 52 
 55 56 59 60 61 67 
 37 
 6 7 8 10 12 13 16 17 19 20 27 28 
 31 32 33 36 38 42 43 45 46 47 49 50 
 53 54 55 57 58 65 70 71 72 73 74 75 
 76 
 3 
 21 26 78 
 45 
 1 5 6 8 9 10 11 12 13 15 18 20 
 22 24 25 27 28 31 32 35 36 37 39 40 
 44 45 46 47 48 49 52 53 55 56 59 60 
 63 66 69 71 74 75 76 78 79 
 54 
 1 2 3 4 5 9 10 11 12 13 14 15 
 16 17 19 20 21 22 25 26 27 29 30 33 
 34 35 36 37 41 42 43 44 45 46 47 48 
 50 51 52 53 55 56 57 59 61 63 64 66 
 67 68 69 72 73 74 
 8 
 13 16 17 40 42 54 72 76 
 37 
 1 7 8 13 14 15 16 17 18 20 21 22 
 24 26 28 36 37 38 41 44 45 46 48 49 
 50 54 56 58 63 64 65 67 68 69 71 76 
 78 
 55 
 3 5 6 7 8 9 10 11 12 13 14 15 
 16 17 20 24 26 27 28 30 32 33 35 36 
 38 39 40 42 44 45 46 47 49 50 51 52 
 53 54 55 56 58 59 61 62 63 65 66 68 
 70 72 73 75 76 78 79 
 29 
 4 10 13 18 21 22 23 24 25 27 32 33 
 35 39 43 44 46 47 51 58 59 60 63 64 
 67 68 75 76 79 
 28 
 1 3 4 8 12 14 17 18 21 22 25 33 
 34 36 39 44 54 62 64 65 66 69 71 72 
 74 76 78 79 
 49 
 2 3 4 5 9 10 11 12 13 14 16 17 
 18 21 22 23 24 26 28 30 31 33 35 40 
 42 43 45 46 47 49 53 55 56 58 60 61 
 63 64 65 67 70 71 72 73 74 76 77 78 
 79 
 60 
 1 2 5 6 9 11 13 14 15 16 17 18 
 19 20 21 22 23 24 25 26 27 28 29 30 
 31 32 33 37 38 40 42 43 44 46 47 48 
 49 50 51 53 54 55 56 57 58 59 60 62 
 63 64 65 68 71 72 73 74 76 77 78 79 
 49 
 4 5 9 10 12 13 16 17 18 19 20 22 
 24 25 26 27 28 30 31 34 35 37 38 39 
 40 41 42 43 45 46 48 50 51 53 55 60 
 63 64 65 66 67 68 69 70 72 73 77 78 
 79 
 73 
 1 2 3 4 5 6 7 8 9 10 11 12 
 13 14 16 17 18 19 20 21 22 24 25 26 
 27 28 29 30 32 33 34 35 36 37 38 39 
 40 41 42 43 44 45 46 47 48 49 50 51 
 52 54 56 57 58 59 60 61 62 63 64 65 
 66 67 68 69 70 71 72 73 74 76 77 78 
 79 
 31 
 1 7 11 14 15 19 20 21 23 25 30 31 
 32 36 37 43 47 49 55 57 59 60 62 64 
 66 69 70 71 72 73 77 
 65 
 1 2 4 7 8 9 10 11 12 13 14 15 
 16 17 18 20 21 22 23 24 25 27 28 29 
 30 31 32 33 34 37 38 39 40 41 42 43 
 44 45 46 47 48 49 51 54 55 56 57 58 
 61 63 64 65 66 67 68 69 70 71 73 74 
 75 76 77 78 79 
 4 
 20 49 64 69 
 74 
 1 2 3 4 5 6 7 8 10 12 13 14 
 15 16 17 18 19 20 21 22 23 24 25 26 
 27 28 30 31 32 33 35 37 38 39 40 41 
 42 43 44 45 46 47 48 49 50 51 52 53 
 54 55 56 57 58 59 60 61 62 63 64 65 
 66 67 68 69 70 71 72 73 74 75 76 77 
 78 79 
 45 
 2 5 6 7 9 10 14 15 17 19 22 28 
 29 30 32 33 34 35 36 37 38 40 41 44 
 46 47 48 51 53 54 55 56 57 59 61 64 
 65 66 68 69 71 72 75 78 79 
 7 
 9 19 21 46 52 61 64 
 25 
 1 2 3 6 8 9 15 18 19 21 23 25 
 29 30 31 38 39 43 46 47 48 56 57 58 
 59 
 46 
 2 3 7 9 11 12 14 17 18 19 21 22 
 25 26 27 28 32 35 36 39 41 42 47 48 
 49 50 51 52 53 54 56 57 58 59 61 62 
 63 64 65 68 70 71 73 76 77 78 
 53 
 1 2 3 4 8 10 11 12 14 15 16 17 
 18 19 20 23 24 25 26 27 29 30 32 36 
 37 39 40 41 42 44 45 46 47 48 50 52 
 53 56 57 59 60 61 62 63 67 68 69 71 
 72 74 76 77 78 
 44 
 1 6 7 10 12 13 14 16 21 23 24 25 
 26 27 28 33 36 37 38 41 42 44 45 47 
 48 50 52 54 55 57 59 60 61 62 64 66 
 68 69 70 71 73 74 77 79 
 18 
 12 19 24 26 27 34 36 42 45 50 52 53 
 61 63 66 72 76 78 
 13 
 1 5 7 11 18 19 31 37 49 55 57 68 
 76 
 11 
 15 17 19 27 29 41 52 58 60 68 75 
 23 
 4 7 9 10 14 15 17 18 19 25 31 36 
 43 44 48 49 50 52 56 59 61 73 79 
 29 
 1 4 6 7 8 10 12 14 17 18 24 25 
 31 36 41 42 46 47 50 55 57 60 62 65 
 66 70 72 73 75 
 20 
 1 10 11 16 21 27 31 33 34 39 41 44 
 47 48 52 54 59 67 75 76 
 47 
 4 5 7 8 10 11 12 13 15 16 17 18 
 20 21 26 27 28 31 32 33 34 36 38 40 
 41 43 45 46 47 48 51 52 53 55 57 58 
 63 64 66 67 71 72 73 74 75 77 78 
 48 
 1 4 5 6 8 9 11 12 13 15 20 21 
 22 24 25 26 27 29 30 32 33 34 38 39 
 40 41 44 45 46 47 48 49 53 54 55 56 
 57 60 62 63 65 66 68 70 72 73 75 78 
 78 
 1 2 3 4 5 6 7 8 9 10 11 12 
 13 14 15 16 17 18 19 20 21 22 23 24 
 25 26 27 28 29 30 31 32 33 34 35 36 
 37 38 39 40 41 42 43 44 45 46 47 48 
 49 50 51 52 53 54 55 56 57 58 59 60 
 61 62 63 65 66 67 68 69 70 71 72 73 
 74 75 76 77 78 79 
 52 
 3 4 6 8 10 12 13 17 18 19 20 21 
 22 23 26 27 29 30 31 35 36 37 39 43 
 44 45 46 47 48 49 51 52 53 54 56 57 
 58 59 60 63 64 65 66 70 71 72 73 74 
 75 76 77 79 
 61 
 1 2 4 6 7 8 9 10 11 12 13 14 
 15 16 17 18 19 20 21 22 24 25 26 27 
 29 30 31 32 33 34 35 37 39 41 44 45 
 46 47 48 52 53 54 55 58 59 60 61 62 
 63 65 67 68 69 70 71 72 73 74 75 76 
 79 
 20 
 4 5 7 10 24 28 34 36 44 46 48 50 
 53 58 61 64 65 70 73 78 
 8 
 12 23 28 40 45 48 58 64 
 42 
 1 2 3 6 9 10 11 15 16 18 19 21 
 23 25 26 29 31 33 34 35 38 40 41 43 
 45 52 53 55 57 58 61 62 66 67 68 69 
 70 71 73 74 77 78 
 51 
 1 2 4 5 6 7 9 10 13 14 15 16 
 19 21 22 23 24 25 26 28 29 31 32 34 
 35 36 37 39 40 41 42 45 48 52 53 54 
 55 56 57 61 63 64 65 67 69 70 72 74 
 75 78 79 
 13 
 7 9 15 24 27 32 44 52 54 61 66 68 
 74 
 33 
 5 7 8 14 16 17 22 25 26 27 28 30 
 33 37 40 41 42 44 47 49 54 56 58 59 
 60 63 64 65 67 69 71 72 77 
 49 
 1 2 3 4 5 6 9 10 11 12 14 16 
 17 19 24 25 29 31 32 33 34 38 39 40 
 41 44 45 46 48 49 50 56 57 59 61 63 
 64 65 66 68 70 71 72 73 74 75 77 78 
 79 
 42 
 3 5 6 8 9 10 11 12 13 17 19 20 
 21 22 23 26 27 28 33 35 37 40 43 47 
 48 49 52 53 54 55 57 63 65 66 68 71 
 72 73 74 75 78 79 
 51 
 2 3 4 5 6 7 10 12 13 15 17 18 
 19 20 21 22 23 24 25 27 29 32 33 35 
 36 40 41 44 47 50 51 52 53 54 55 57 
 58 60 62 63 65 67 68 69 70 71 74 75 
 76 78 79 
 45 
 2 3 4 5 6 7 9 11 12 15 16 17 
 18 20 23 24 25 27 28 29 30 31 35 37 
 38 39 41 43 45 46 48 49 53 55 57 60 
 62 63 65 70 73 74 75 76 78 
 42 
 3 5 11 12 14 16 18 19 20 21 23 24 
 26 27 28 30 32 33 34 37 38 42 43 44 
 47 48 51 53 55 56 61 62 65 66 67 71 
 72 73 74 75 77 78 
 78 
 1 2 3 4 5 6 7 8 10 11 12 13 
 14 15 16 17 18 19 20 21 22 23 24 25 
 26 27 28 29 30 31 32 33 34 35 36 37 
 38 39 40 41 42 43 44 45 46 47 48 49 
 50 51 52 53 54 55 56 57 58 59 60 61 
 62 63 64 65 66 67 68 69 70 71 72 73 
 74 75 76 77 78 79 
 54 
 1 2 4 5 6 7 8 9 10 11 13 14 
 15 16 17 18 20 22 24 25 28 30 31 34 
 37 40 41 42 43 44 45 46 47 48 52 53 
 54 56 57 58 59 60 61 62 63 65 67 68 
 70 72 74 76 77 79 
 71 
 1 2 3 4 5 6 7 8 9 10 12 13 
 14 15 16 17 18 19 20 21 23 24 25 26 
 27 28 29 30 32 33 34 35 36 38 39 40 
 41 43 44 46 47 48 49 50 51 52 53 54 
 55 57 58 59 60 61 62 63 64 65 66 67 
 68 69 70 72 73 74 75 76 77 78 79 
 36 
 4 5 8 11 12 14 17 18 22 23 25 26 
 27 28 29 32 34 37 41 43 45 47 51 55 
 58 60 61 62 63 64 65 70 72 74 75 79 
 23 
 3 6 8 14 18 19 20 25 26 30 33 48 
 49 50 51 57 58 60 61 68 72 73 76 
 18 
 5 13 14 16 18 23 26 29 34 35 36 44 
 47 55 63 74 76 78 
 63 
 1 2 3 4 5 6 7 8 9 10 11 16 
 17 18 19 20 21 22 23 25 26 27 28 29 
 30 32 34 35 37 38 39 40 41 42 43 44 
 45 46 47 48 49 50 51 52 53 54 56 58 
 60 61 62 63 64 65 66 67 68 69 71 73 
 74 77 78 
 38 
 2 3 6 8 11 12 13 15 17 22 25 30 
 31 32 33 34 35 36 39 40 43 44 45 47 
 49 51 53 55 58 60 61 65 68 69 70 74 
 76 79 
 75 
 1 3 4 5 6 7 8 9 10 11 12 13 
 14 15 16 17 18 19 20 21 22 23 24 25 
 26 27 29 30 31 32 33 34 35 36 37 38 
 39 40 41 42 43 44 45 46 47 48 49 50 
 51 52 53 54 55 56 57 58 59 60 61 62 
 63 64 65 66 67 69 70 71 72 73 74 75 
 76 77 79 
 18 
 8 9 16 30 34 39 41 44 45 47 48 55 
 59 60 67 69 70 71 
 21 
 6 8 10 12 18 24 30 37 41 42 48 55 
 58 66 68 71 73 74 75 76 79 
 65 
 1 3 5 6 7 8 11 13 14 15 17 18 
 19 20 21 22 23 25 26 27 28 29 30 31 
 32 33 34 35 36 37 38 39 40 41 42 43 
 44 45 46 47 48 50 52 53 54 55 56 57 
 58 59 60 62 64 67 68 70 71 72 73 74 
 75 76 77 78 79 
 32 
 2 5 6 8 9 10 12 15 16 17 27 28 
 29 30 35 38 40 44 47 53 57 58 63 65 
 68 70 72 73 74 75 77 79 
 47 
 3 4 5 7 10 12 13 14 15 19 20 22 
 23 25 26 28 29 31 33 35 37 39 40 42 
 43 45 50 52 53 54 55 57 58 59 60 62 
 63 65 66 68 69 70 71 72 74 78 79 
 5 
 2 40 66 67 76 
 30 
 3 5 6 7 9 10 11 12 13 15 16 17 
 22 27 28 31 33 36 41 49 50 52 54 62 
 66 70 72 75 77 78 
 78 
 1 2 3 4 5 6 7 8 9 10 11 12 
 13 14 15 16 17 18 19 20 21 22 23 24 
 25 26 27 28 29 30 31 32 33 34 35 36 
 37 38 39 40 41 42 43 44 45 46 47 48 
 49 50 51 52 53 54 55 56 57 58 59 60 
 61 62 63 64 65 66 67 68 69 70 71 72 
 73 75 76 77 78 79 
 44 
 1 2 3 4 9 11 12 13 14 19 20 24 
 25 26 29 30 31 32 33 35 37 41 42 43 
 44 45 49 50 51 53 54 56 57 58 59 60 
 61 65 69 73 74 75 76 78 
 15 
 4 5 36 40 41 43 46 49 51 54 60 65 
 66 67 75 
 77 
 1 2 3 4 5 6 7 8 9 10 11 12 
 13 14 15 16 17 18 19 20 21 22 23 24 
 25 26 27 28 29 30 31 32 33 34 35 36 
 38 39 40 41 42 43 44 45 46 47 48 49 
 50 51 52 53 54 56 57 58 59 60 61 62 
 63 64 65 66 67 68 69 70 71 72 73 74 
 75 76 77 78 79 
 69 
 1 2 3 5 6 7 8 9 10 11 12 13 
 14 15 16 17 18 19 20 21 23 24 25 26 
 27 28 29 30 31 32 34 35 36 37 38 39 
 41 42 43 44 45 46 48 49 50 52 53 54 
 55 56 57 58 59 61 62 63 65 66 67 68 
 69 71 72 73 74 75 76 77 79 
 19 
 2 13 17 19 22 23 24 25 36 39 44 51 
 55 58 66 72 74 78 79 
 22 
 7 11 12 13 16 21 25 27 31 34 36 37 
 38 40 42 44 56 60 62 65 67 69 
 39 
 1 2 4 5 7 8 11 12 14 16 17 18 
 20 25 27 28 29 30 31 32 33 39 40 41 
 44 46 50 53 54 57 61 63 65 66 67 69 
 70 76 79 
 45 
 2 3 5 6 8 11 12 13 15 16 17 19 
 20 21 23 26 27 32 34 36 38 40 41 43 
 45 47 48 50 52 54 56 58 59 62 64 67 
 68 70 72 73 74 75 76 77 79 
 18 
 6 9 12 14 15 17 19 26 27 40 47 49 
 55 57 64 69 73 77 
 29 
 1 2 4 7 8 10 12 15 17 19 20 24 
 27 31 33 39 41 46 48 49 50 52 57 58 
 59 65 67 68 74 
 2 
 12 13 
 14 
 3 5 18 45 46 47 50 52 53 56 58 61 
 67 76 
 68 
 1 2 3 5 7 8 9 11 12 13 14 15 
 16 17 18 20 21 22 23 24 25 27 28 29 
 30 32 33 34 35 38 39 40 41 42 43 44 
 45 46 47 48 49 50 51 52 54 55 56 58 
 59 60 61 62 63 64 66 67 68 69 70 71 
 72 73 74 75 76 77 78 79 
 54 
 1 2 4 5 8 9 10 12 13 14 15 16 
 18 20 21 24 25 26 29 30 31 32 33 34 
 35 36 37 38 39 40 41 43 44 46 48 50 
 52 53 56 58 60 61 63 66 68 69 70 71 
 72 74 75 76 78 79 
 58 
 1 2 3 4 5 6 7 9 11 12 14 15 
 16 17 19 22 24 27 28 29 30 31 32 33 
 34 35 37 38 39 40 41 42 43 44 45 47 
 48 50 51 54 55 56 58 59 62 63 66 67 
 69 70 72 73 74 75 76 77 78 79 
 2 
 31 42 
 43 
 1 2 6 7 8 10 13 14 15 16 18 20 
 23 24 25 26 28 30 32 35 36 37 40 41 
 42 43 45 47 52 53 55 56 57 60 61 63 
 65 69 72 74 76 77 79 
 47 
 3 4 6 7 8 10 11 12 13 16 18 21 
 24 28 30 32 34 37 38 40 41 42 44 45 
 47 51 53 54 56 57 58 60 61 63 64 66 
 67 68 69 71 72 74 75 76 77 78 79 
 8 
 2 7 23 46 47 58 72 75 
 8 
 5 17 18 37 39 52 55 61 
 19 
 3 8 10 11 15 16 22 35 36 39 41 48 
 49 53 57 59 69 73 74 
 4 
 2 15 31 59 
 55 
 1 2 4 5 7 8 9 10 11 12 16 17 
 18 21 22 23 24 25 26 28 30 31 34 35 
 37 39 40 41 42 43 45 46 47 48 49 50 
 51 52 55 56 57 58 60 61 63 65 66 68 
 69 70 71 72 73 74 76 
 52 
 2 4 5 6 7 12 13 14 16 18 22 23 
 24 25 29 30 31 32 33 34 35 36 37 38 
 40 41 42 43 44 47 48 49 52 53 54 55 
 56 58 59 60 61 62 63 64 65 66 69 74 
 75 76 78 79 
 73 
 2 3 4 5 6 7 9 10 12 13 14 15 
 16 17 18 20 21 22 23 24 25 26 27 28 
 29 30 31 32 33 34 35 36 37 38 39 40 
 41 42 43 44 45 46 47 48 49 50 51 52 
 53 54 55 56 57 58 59 60 61 62 63 64 
 65 66 68 70 71 72 73 74 75 76 77 78 
 79 
 22 
 10 12 16 18 22 24 35 39 41 44 48 49 
 52 59 63 71 72 74 75 77 78 79 
 65 
 1 3 5 6 7 8 9 10 11 12 13 14 
 16 18 19 21 22 24 25 26 27 28 29 31 
 32 33 34 36 37 38 39 40 41 42 43 44 
 45 46 47 48 50 51 52 54 55 56 57 58 
 59 60 62 63 65 66 67 68 69 70 71 73 
 74 75 77 78 79 
 68 
 1 2 3 4 5 6 8 9 11 12 13 14 
 15 16 17 20 21 22 23 24 25 26 27 28 
 29 30 31 33 34 35 36 37 38 39 40 41 
 42 43 44 46 47 48 49 51 52 53 54 55 
 56 57 58 59 60 61 62 64 66 67 68 69 
 70 71 72 73 74 76 77 78 
 77 
 1 2 3 4 5 6 7 8 9 10 11 12 
 13 14 15 16 17 18 19 20 21 22 23 24 
 25 26 27 28 29 30 31 32 33 34 35 36 
 38 39 40 41 42 43 44 45 46 47 48 49 
 50 51 52 53 54 55 56 57 58 59 60 61 
 62 63 64 65 66 67 68 69 70 71 72 73 
 74 75 76 78 79 
 75 
 1 2 3 4 5 6 7 8 9 10 11 12 
 13 14 15 16 17 18 19 20 21 23 24 25 
 26 27 28 29 30 31 32 33 34 35 36 37 
 38 39 40 41 42 43 44 45 47 48 49 50 
 51 52 53 54 55 56 57 58 59 60 61 62 
 63 64 65 67 68 69 70 71 73 74 75 76 
 77 78 79 
 71 
 1 2 3 4 5 6 7 8 9 10 11 12 
 13 14 16 17 18 19 20 21 22 23 24 25 
 26 27 29 30 32 33 34 35 37 38 39 40 
 41 42 43 44 45 47 48 49 50 51 52 53 
 54 55 56 57 58 59 60 61 62 63 64 65 
 67 68 69 70 71 73 74 75 77 78 79 
 76 
 1 2 3 4 6 7 8 9 10 11 13 14 
 15 16 17 18 19 20 21 22 23 24 25 26 
 27 28 29 30 31 32 33 34 35 37 38 39 
 40 41 42 43 44 45 46 47 48 49 50 51 
 52 53 54 55 56 57 58 59 60 61 62 63 
 64 65 66 67 68 69 70 71 72 73 74 75 
 76 77 78 79 
 19 
 11 13 17 19 30 32 33 40 42 48 55 56 
 63 65 69 70 75 76 79 
 20 
 3 5 14 19 24 27 33 38 39 42 44 50 
 51 56 58 63 68 69 74 77 
 16 
 1 7 8 33 35 36 39 53 54 57 61 63 
 71 72 74 75 
 71 
 1 2 3 4 5 6 7 8 9 10 11 12 
 13 15 17 20 21 22 23 24 25 26 27 28 
 29 30 31 32 33 34 35 36 37 38 39 40 
 41 42 43 44 45 46 47 48 49 50 51 52 
 53 55 56 57 58 59 60 61 62 64 65 66 
 68 70 71 72 73 74 75 76 77 78 79 
 20 
 1 2 3 4 5 11 17 19 25 26 31 38 
 41 44 46 51 58 61 66 79 
 51 
 3 5 7 8 9 11 13 14 15 16 18 19 
 22 23 26 27 29 31 32 35 37 38 39 40 
 41 42 44 45 46 48 50 53 55 56 58 61 
 62 63 64 65 66 67 69 71 72 73 74 75 
 76 78 79 
 28 
 3 4 5 7 8 9 11 15 19 23 28 34 
 37 41 45 47 48 51 53 56 57 58 61 62 
 66 67 71 73 
 9 
 4 17 25 43 46 64 66 71 72 
 16 
 1 8 9 11 18 24 30 37 43 46 49 51 
 62 65 71 77 
 51 
 1 3 4 5 7 8 9 11 12 14 15 16 
 17 18 21 22 23 24 29 30 33 36 37 39 
 40 41 43 45 46 47 48 51 53 54 56 57 
 58 59 60 61 63 64 65 68 71 72 73 74 
 75 76 79 
 64 
 1 2 3 4 5 6 7 8 9 11 13 14 
 15 16 17 18 19 21 22 23 24 25 26 27 
 28 30 31 32 33 34 35 36 38 39 40 41 
 43 44 45 46 47 48 50 51 54 56 57 58 
 59 61 62 63 64 65 66 67 68 69 70 71 
 73 76 77 79 
 22 
 4 6 7 10 11 17 18 20 27 30 33 43 
 53 54 56 62 66 67 68 71 73 74 
 42 
 1 3 5 6 9 11 12 14 16 17 18 21 
 23 24 25 30 31 32 34 36 37 38 39 45 
 47 48 49 51 52 56 59 60 61 65 68 69 
 70 71 72 73 78 79 
 71 
 1 2 3 4 5 6 7 10 11 12 13 14 
 17 18 19 20 21 22 23 24 25 27 28 29 
 30 31 32 35 36 37 38 39 40 42 43 44 
 45 46 47 48 49 50 51 52 53 54 55 56 
 57 58 59 60 61 62 63 64 65 66 67 68 
 69 70 71 72 73 74 75 76 77 78 79 
 60 
 1 2 3 4 5 6 7 8 10 11 12 13 
 14 15 16 17 18 19 20 21 22 25 26 27 
 28 30 31 32 33 34 35 36 37 38 39 41 
 43 44 45 46 47 49 52 53 58 59 60 61 
 62 63 65 67 68 69 70 71 72 73 75 76 
 54 
 1 3 5 6 7 9 12 13 15 16 17 19 
 20 21 22 23 24 25 26 27 28 30 33 34 
 35 39 40 41 42 43 44 45 46 47 48 50 
 51 52 53 54 55 57 58 62 64 65 66 67 
 68 70 71 73 75 79 
 50 
 2 3 4 8 9 10 11 13 15 16 20 21 
 23 24 26 28 29 30 32 33 34 35 36 37 
 39 40 41 45 46 48 49 50 53 54 55 58 
 59 60 61 63 67 69 70 73 74 75 76 77 
 78 79 
 47 
 1 2 3 4 5 7 8 9 10 11 12 17 
 18 20 22 23 24 25 27 33 35 36 37 38 
 40 41 45 46 47 48 52 53 55 56 57 58 
 61 63 64 65 66 68 69 70 72 73 76 
 43 
 1 3 7 8 9 10 12 13 14 18 19 22 
 25 26 28 29 30 32 34 35 36 39 40 42 
 43 44 47 48 51 53 54 57 60 62 63 64 
 65 67 68 71 72 73 76 
 37 
 1 3 5 6 10 11 12 15 16 17 19 22 
 27 30 31 32 39 40 41 43 46 47 50 51 
 52 53 56 57 60 61 63 65 66 69 73 74 
 76 
 64 
 2 4 5 6 7 8 9 10 11 12 14 16 
 17 18 21 23 24 26 27 29 30 32 33 34 
 35 36 37 38 40 41 42 43 44 45 46 47 
 48 49 50 51 52 53 54 55 57 58 59 60 
 63 64 65 66 67 68 70 71 72 73 74 75 
 76 77 78 79 
 28 
 6 10 12 17 19 25 26 27 28 31 32 33 
 35 37 45 47 48 50 58 60 61 62 66 70 
 74 75 76 79 
 50 
 1 2 3 4 6 7 8 10 11 12 15 16 
 17 18 20 21 23 24 25 26 27 28 29 31 
 35 36 37 38 40 41 44 45 46 48 52 55 
 57 59 60 63 64 65 68 69 70 73 74 75 
 76 79 
 